NAME : tsp30_25.189.tour
COMMENT : Length = 189
COMMENT : Found by LKH [Keld Helsgaun]
TYPE : TOUR
DIMENSION : 30
TOUR_SECTION
1
12
18
2
27
16
17
4
15
21
19
30
8
28
24
5
25
10
7
6
22
29
9
3
26
11
23
14
13
20
-1
EOF
